c --- [ banner ] -------------------------------------------------------------
c 
c CaDiCaL SAT Solver
c Copyright (c) 2016-2023 A. Biere, M. Fleury, N. Froleyks, K. Fazekas, F. Pollitt
c 
c Version 1.9.5
c g++ (Ubuntu 11.4.0-1ubuntu1~22.04) 11.4.0 -Wall -Wextra -O3 -DNDEBUG -static
c Thu Mar 7 06:16:21 CET 2024 Linux pc101447 6.5.0-17-generic x86_64
c 
c --- [ limit ] --------------------------------------------------------------
c 
c setting time limit to 3600 seconds real time (due to '-t 3600')
c 
c --- [ parsing input ] ------------------------------------------------------
c 
c reading DIMACS file from '/home/oliveras/SAT-comp-2023//d7f381cd99ca40ba3324c8cc03a54269-mchess16-mixed-25percent-blocked.cnf'
c opening file to read '/home/oliveras/SAT-comp-2023//d7f381cd99ca40ba3324c8cc03a54269-mchess16-mixed-25percent-blocked.cnf'
c found 'p cnf 16278 965' header
c parsed 965 clauses in 0.00 seconds process time
c 
c --- [ options ] ------------------------------------------------------------
c 
c   --seed=1                       (different from default '0')
c 
c --- [ solving ] ------------------------------------------------------------
c 
c time measured in process time since initialization
c 
c  seconds  reductions  redundant irredundant
c         MB    restarts       trail    variables
c          level   conflicts       glue     remaining
c 
c *  0.00  4  0 0   0    0    0  0% 0  965 626  4%
c {  0.01  4  0 0   0    0    0  0% 0  965 626  4%
c -  0.01  4 66 1  11  300  255  3% 4  965 626  4%
c -  0.02  4 58 2  53  900  752  3% 5  965 626  4%
c }  0.02  4 57 2  75 1000  824  3% 5  965 626  4%
c [  0.02  4  0 2  75 1000  824  0% 0  965 626  4%
c O  0.03  4 7232 2  75 1002  826 47% 2  965 626  4%
c -  0.05  4 1347 3  75 1800 1350 11% 10  965 626  4%
c s  0.06  4 1307 3  75 2002 1514 10% 10  965 626  4%
c w  0.06  5 1307 3  75 2002 1514 10% 10  965 626  4%
c e  0.07  5 1307 3  75 2002   35 10% 10  690 292  2%
c s  0.07  5 1307 3  75 2002   26 10% 10  681 292  2%
c e  0.07  5 1307 3  75 2002   24 10% 10  680 291  2%
c ]  0.08  5 667 3  76 3000  846 59% 8  680 291  2%
c {  0.08  5 57 3  76 3000  846 149% 5  680 291  2%
c -  0.08  5 57 4  77 3000  846 149% 5  680 291  2%
c F  0.08  5 57 4  77 3003  849 149% 5  680 291  2%
c -  0.11  5 47 5 307 4500 1921 97% 5  680 291  2%
c 2  0.11  5 46 5 361 5001 2337 92% 5  680 291  2%
c p  0.11  5 46 5 361 5001 2340 92% 5  680 291  2%
c 
c  seconds  reductions  redundant irredundant
c         MB    restarts       trail    variables
c          level   conflicts       glue     remaining
c 
c #  0.13  5 45 5 481 6004 3172 85% 6  680 291  2%
c -  0.14  5 44 6 506 6300 2900 84% 6  680 291  2%
c s  0.15  5 44 6 624 6901 3354 81% 6  679 291  2%
c v  0.15  5 44 6 624 6901 3354 81% 6  676 291  2%
c w  0.16  5 44 6 624 6901 3345 81% 6  676 291  2%
c e  0.16  5 44 6 624 6901 3320 81% 6  675 286  2%
c s  0.16  5 44 6 624 6901 3305 81% 6  672 286  2%
c }  0.16  5 43 6 648 7000 3393 81% 6  672 286  2%
c [  0.16  5 667 6 648 7000 3393 59% 8  672 286  2%
c -  0.19  5 402 7 649 8400 3742 55% 10  672 286  2%
c I  0.23  5 282 7 650 10006 5051 52% 12  672 286  2%
c -  0.24  5 250 8 651 10800 4278 52% 12  672 286  2%
c -  0.30  5 179 9 653 13500 4338 47% 15  672 286  2%
c ]  0.32  5 157 9 653 15000 5434 46% 15  672 286  2%
c {  0.32  5 43 9 653 15000 5434 81% 6  672 286  2%
c p  0.33  5 43 9 654 15001 5439 81% 6  672 286  2%
c B  0.33  5 43 9 656 15007 5445 81% 6  672 286  2%
c -  0.37  5 41 10 906 16503 4968 75% 6  672 286  2%
c -  0.45  5 39 11 1517 19804 6286 69% 6  672 286  2%
c W  0.49  5 39 11 1718 21008 7371 67% 7  672 286  2%
c 
c  seconds  reductions     redundant irredundant
c         MB     restarts         trail    variables
c          level      conflicts       glue     remaining
c 
c -  0.54  5 38 12 2030 23405 7751 65% 7  672 286  2%
c -  0.63  5 36 13 2447 27305 9110 63% 7  672 286  2%
c F  0.65  5 35 13 2572 28013 9721 63% 7  672 286  2%
c }  0.73  5 34 13 2939 31001 12285 61% 7  672 286  2%
c [  0.73  5 157 13 2939 31001 12285 46% 15  672 286  2%
c -  0.74  5 151 14 2939 31507 10420 47% 15  672 286  2%
c -  0.83  5 111 15 2942 36007 11035 46% 14  672 286  2%
c B  0.84  5 111 15 2942 36014 11041 46% 14  672 286  2%
c -  0.93  5 91 16 2945 40809 10105 45% 16  672 286  2%
c W  1.02  5 79 16 2946 45019 13119 44% 16  672 286  2%
c -  1.04  5 77 17 2946 45910 9779 44% 16  672 286  2%
c s  1.04  5 77 17 2946 45910 9574 44% 16  672 286  2%
c w  1.05  5 77 17 2946 45910 9547 44% 16  672 286  2%
c p  1.13  5 69 17 2947 50004 12648 43% 16  672 286  2%
c -  1.16  5 66 18 2947 51313 10046 43% 16  672 286  2%
c O  1.24  5 61 18 2948 55021 12855 43% 16  672 286  2%
c -  1.28  6 59 19 2950 57013 10807 42% 16  672 286  2%
c ]  1.39  6 52 19 2953 63002 15115 41% 15  672 286  2%
c {  1.39  6 34 19 2953 63002 15115 61% 7  672 286  2%
c -  1.39  5 34 20 2955 63013 11179 61% 7  672 286  2%
c 
c  seconds  reductions      redundant irredundant
c         MB     restarts          trail    variables
c          level      conflicts        glue     remaining
c 
c B  1.47  5 33 20 3297 66022 13799 60% 7  672 286  2%
c -  1.57  6 32 21 3737 69313 13285 59% 7  672 286  2%
c p  1.77  6 31 21 4621 75004 18281 56% 7  672 286  2%
c -  1.81  6 30 22 4748 75913 15666 56% 7  672 286  2%
c W  1.89  6 30 22 5057 78024 17491 55% 7  672 286  2%
c -  2.06  7 29 23 5692 82813 17455 54% 7  672 286  2%
c -  2.31  7 28 24 6439 90015 18935 53% 8  672 286  2%
c #  2.34  7 27 24 6521 91025 19730 52% 8  672 286  2%
c -  2.59  7 27 25 7338 97516 20505 51% 8  672 286  2%
c s  2.61  7 27 25 7338 97516 20033 51% 8  672 286  2%
c B  2.91  7 26 25 8088 105026 26469 50% 8  672 286  2%
c -  2.92  8 26 26 8109 105316 21577 50% 8  672 286  2%
c -  3.23  8 25 27 8909 113417 22990 49% 8  672 286  2%
c W  3.53  8 25 27 9907 120027 28617 48% 8  672 286  2%
c -  3.59  8 25 28 10002 121817 24335 48% 8  672 286  2%
c }  3.81  8 25 28 10559 127003 28754 48% 8  672 286  2%
c [  3.81  8 52 28 10559 127003 28754 41% 15  672 286  2%
c -  3.90  8 49 29 10560 130518 25029 41% 15  672 286  2%
c B  4.05  8 46 29 10564 136028 29458 40% 15  672 286  2%
c -  4.15  8 44 30 10566 139519 24462 40% 15  672 286  2%
c 
c  seconds  reductions        redundant  irredundant
c         MB      restarts           trail     variables
c          level       conflicts         glue      remaining
c 
c -  4.38  8 40 31 10568 148822 21944 38% 15  672 286  2%
c W  4.48  8 38 31 10569 153030 24633 37% 15  672 286  2%
c -  4.62  9 36 32 10569 158424 21989 37% 15  672 286  2%
c -  4.90 11 34 33 10569 168327 22951 36% 14  672 286  2%
c s  4.93 11 34 33 10569 168327 22471 36% 14  672 286  2%
c w  4.95 11 34 33 10569 168327 22450 36% 14  672 286  2%
c I  5.02 11 33 33 10571 171031 24497 36% 14  672 286  2%
c -  5.20 11 32 34 10576 178527 23009 35% 15  672 286  2%
c p  5.24 11 32 34 10576 180006 24114 35% 14  672 286  2%
c -  5.47 11 31 35 10582 189029 23051 34% 14  672 286  2%
c B  5.49 11 30 35 10582 190032 23683 34% 14  672 286  2%
c -  5.74 11 29 36 10584 199829 23574 33% 14  672 286  2%
c W  6.02 11 27 36 10590 210035 30874 33% 14  672 286  2%
c -  6.05 11 27 37 10590 210931 24462 32% 14  672 286  2%
c -  6.36 12 26 38 10597 222332 25618 32% 14  672 286  2%
c p  6.43  8 26 38 10598 225006 27549 32% 14  672 286  2%
c O  6.61  8 25 38 10599 231037 31975 32% 13  672 286  2%
c -  6.70  8 25 39 10599 234033 26392 32% 13  672 286  2%
c -  7.02  8 24 40 10600 246033 24963 32% 13  672 286  2%
c s  7.07  8 24 40 10600 246033 24640 32% 13  672 286  2%
c 
c  seconds  reductions        redundant  irredundant
c         MB      restarts           trail     variables
c          level       conflicts         glue      remaining
c 
c B  7.31  8 23 40 10600 253039 30339 33% 13  672 286  2%
c ]  7.37  8 23 40 10601 255005 31889 33% 13  672 286  2%
c {  7.37  8 25 40 10601 255005 31889 48% 8  672 286  2%
c -  7.52 11 24 41 10966 258333 27506 47% 8  672 286  2%
c -  8.09 11 24 42 12290 270933 30500 47% 8  672 286  2%
c p  8.28 11 24 42 12795 275006 33989 46% 8  672 286  2%
c F  8.33 11 24 42 12900 276042 34849 46% 8  672 286  2%
c -  8.68 11 23 43 13508 283834 33647 46% 8  672 286  2%
c -  9.34 12 22 44 14809 297035 35926 45% 8  672 286  2%
c B  9.50 12 22 44 15245 300044 38491 44% 8  672 286  2%
c - 10.04 12 22 45 16199 310537 38305 44% 8  672 286  2%
c - 10.71 12 21 46 17242 324337 40251 43% 8  672 286  2%
c W 10.76 12 21 46 17322 325046 40821 43% 8  672 286  2%
c - 11.46 13 20 47 18476 338437 41514 42% 8  672 286  2%
c s 11.54 13 20 47 18476 338437 40601 42% 8  672 286  2%
c w 11.57 13 20 47 18476 338437 40565 42% 8  672 286  2%
c # 12.19 13 20 47 19483 351047 50921 41% 8  672 286  2%
c - 12.32 13 20 48 19711 352837 42282 41% 8  672 286  2%
c - 12.98 13 20 49 20544 367541 43281 40% 8  672 286  2%
c B 13.54 13 19 49 21362 378049 52014 40% 8  672 286  2%
c 
c  seconds  reductions        redundant irredundant
c         MB      restarts           trail    variables
c          level       conflicts         glue     remaining
c 
c - 13.83 14 19 50 21820 382544 45600 40% 8  672 286  2%
c - 14.68 14 19 51 23198 397846 46656 39% 8  672 286  2%
c W 15.11 14 19 51 23925 406051 53312 38% 8  672 286  2%
c - 15.51 15 19 52 24532 413447 47586 38% 8  672 286  2%
c - 16.45 15 18 53 25877 429347 49360 37% 8  672 286  2%
c F 16.77 15 18 53 26391 435053 53989 37% 8  672 286  2%
c - 17.37 15 18 54 27135 445547 50525 36% 8  672 286  2%
c s 17.41 15 18 54 27135 445547 50186 36% 8  672 286  2%
c w 17.45 15 18 54 27135 445547 50165 36% 8  672 286  2%
c - 18.42 15 18 55 28473 462047 51763 36% 8  672 286  2%
c B 18.55 15 18 55 28629 465060 54179 36% 8  672 286  2%
c - 19.43 16 18 56 30000 478847 53794 35% 8  672 286  2%
c - 20.52 16 18 57 31530 495950 55125 35% 9  672 286  2%
c W 20.53 16 18 57 31538 496061 55209 35% 9  672 286  2%
c } 21.48 16 17 57 32834 511008 67189 34% 9  672 286  2%
c [ 21.48 16 23 57 32834 511008 67189 33% 13  672 286  2%
c - 21.59 16 23 58 32834 513351 56121 32% 13  672 286  2%
c W 22.18 16 22 58 32834 528063 66743 32% 13  672 286  2%
c - 22.33 16 22 59 32834 531053 54701 32% 13  672 286  2%
c - 23.06 16 20 60 32840 549054 50861 31% 12  672 286  2%
c 
c  seconds  reductions        redundant  irredundant
c         MB      restarts           trail     variables
c          level       conflicts         glue      remaining
c 
c I 23.53 16 20 60 32846 561064 58419 30% 12  672 286  2%
c - 23.76 19 20 61 32848 567356 49256 30% 12  672 286  2%
c s 23.76 19 20 61 32848 567356 49256 30% 12  672 286  2%
c w 23.80 19 20 61 32848 567356 49256 30% 12  672 286  2%
c - 24.46 19 20 62 32856 585956 49788 29% 13  672 286  2%
c B 24.79 19 20 62 32861 595068 55801 29% 13  672 286  2%
c p 24.98 19 20 62 32863 600012 59479 29% 13  672 286  2%
c - 25.17 19 20 63 32864 604858 49911 29% 13  672 286  2%
c - 25.91 19 19 64 32865 624062 49801 28% 12  672 286  2%
c W 26.14 19 19 64 32868 630069 53973 28% 12  672 286  2%
c - 26.69 19 19 65 32876 643563 50404 28% 12  672 286  2%
c - 27.55 19 18 66 32883 663364 50965 28% 12  672 286  2%
c O 27.66 19 18 66 32885 666071 52834 28% 12  672 286  2%
c p 28.17 19 18 66 32893 680012 62321 28% 12  672 286  2%
c - 28.32 19 17 67 32894 683466 51497 28% 12  672 286  2%
c B 29.08 19 17 67 32896 703072 64770 28% 12  672 286  2%
c - 29.13 19 17 68 32896 703868 52052 28% 12  672 286  2%
c s 29.27 19 17 68 32896 703868 49821 28% 12  672 286  2%
c w 29.31 19 17 68 32896 703868 49762 28% 12  672 286  2%
c - 30.09 19 17 69 32897 724568 49722 28% 12  672 286  2%
c 
c  seconds  reductions        redundant  irredundant
c         MB      restarts           trail     variables
c          level       conflicts         glue      remaining
c 
c W 30.73 19 17 69 32897 741073 60049 28% 12  672 286  2%
c - 30.91 19 17 70 32898 745568 49701 28% 12  672 286  2%
c p 31.63 19 16 70 32898 765013 61972 27% 11  672 286  2%
c - 31.70 19 16 71 32898 766869 49685 27% 11  672 286  2%
c I 32.20 19 16 71 32898 780076 57773 27% 11  672 286  2%
c - 32.52 19 17 72 32898 788470 51130 27% 12  672 286  2%
c - 33.41 22 17 73 32898 810372 52001 26% 12  672 286  2%
c B 33.80 22 17 73 32905 820077 58770 27% 12  672 286  2%
c - 34.35 26 18 74 32911 832572 52945 27% 12  672 286  2%
c p 35.38 26 17 74 32920 855016 68122 27% 12  672 286  2%
c - 35.39 22 17 75 32920 855074 53641 27% 12  672 286  2%
c s 35.46 22 17 75 32920 855074 53189 27% 12  672 286  2%
c w 35.50 22 17 75 32920 855074 53178 27% 12  672 286  2%
c W 35.84 22 17 75 32923 861080 57617 27% 12  672 286  2%
c - 36.68 26 17 76 32928 877877 53939 26% 12  672 286  2%
c - 37.69 22 17 77 32934 900980 53808 26% 12  672 286  2%
c O 37.78 22 16 77 32935 903082 55120 26% 12  672 286  2%
c - 38.66 22 16 78 32944 924382 53166 26% 11  672 286  2%
c B 39.49 22 15 78 32955 946083 67171 26% 11  672 286  2%
c - 39.57 22 15 79 32957 948083 55375 26% 11  672 286  2%
c 
c  seconds  reductions        redundant  irredundant
c         MB      restarts           trail     variables
c          level       conflicts         glue      remaining
c 
c p 39.65 22 15 79 32957 950016 56953 26% 11  672 286  2%
c - 40.58 18 16 80 32960 972083 57000 26% 12  672 286  2%
c W 41.35 18 16 80 32961 990085 70418 26% 12  672 286  2%
c - 41.64 18 16 81 32961 996384 57721 27% 12  672 286  2%
c - 42.74 18 16 82 32967 1020985 58447 27% 12  672 286  2%
c w 42.79 18 16 82 32967 1020985 58443 27% 12  672 286  2%
c ] 42.88 18 16 82 32968 1023011 59734 27% 12  672 286  2%
c { 42.88 18 17 82 32968 1023011 59734 34% 9  672 286  2%
c # 43.55 18 17 82 33605 1035086 69314 34% 8  672 286  2%
c - 44.31 19 17 83 34404 1045886 62521 34% 8  672 286  2%
c p 44.55 19 17 83 34855 1050016 65676 33% 9  672 286  2%
c - 45.89 19 16 84 36291 1071089 67841 33% 9  672 286  2%
c B 46.37 19 16 84 36592 1081090 74495 32% 8  672 286  2%
c - 47.34 19 15 85 37516 1096592 68641 31% 8  672 286  2%
c i 47.58 19 15 85 37538 1101539 71491 31% 8  672 285  2%
c s 47.79 19 15 85 37538 1101539 69854 31% 8  669 285  2%
c ^ 47.79 19 15 85 37538 1101539 69854 31% 8  669 285  2%
c s 48.54 19 15 85 38475 1111389 76429 31% 8  669 285  2%
c w 48.59 19 15 85 38475 1111389 76357 31% 8  669 285  2%
c e 48.60 19 15 85 38475 1111389 54442 31% 8  686 268  2%
c 
c  seconds  reductions         redundant irredundant
c         MB      restarts            trail    variables
c          level        conflicts         glue     remaining
c 
c s 48.81 19 15 85 38475 1111389 53754 31% 8  683 268  2%
c e 48.82 19 15 85 38475 1111389 53754 31% 8  678 267  2%
c - 49.38 18 15 86 39398 1122392 45956 31% 8  678 267  2%
c s 49.51 18 15 86 39543 1124834 47875 31% 8  678 267  2%
c v 49.51 18 15 86 39543 1124834 47875 31% 8  678 267  2%
c w 49.54 18 15 86 39543 1124834 47840 31% 8  678 267  2%
c s 49.69 18 15 86 39543 1124834 46978 31% 8  678 267  2%
c ^ 49.70 18 15 86 39543 1124834 46978 31% 8  678 267  2%
c W 49.88 18 15 86 39851 1128091 49640 31% 8  678 267  2%
c s 50.57 18 15 86 41085 1140970 58972 31% 8  678 267  2%
c w 50.61 18 15 86 41085 1140970 58960 31% 8  678 267  2%
c e 50.61 18 15 86 41085 1140970 25539 31% 8  709 250  2%
c s 50.64 18 15 86 41085 1140970 25421 31% 8  698 250  2%
c e 50.64 18 15 86 41085 1140970 24564 31% 8  699 249  2%
c - 50.84 18 15 87 41279 1148492 28113 32% 8  699 249  2%
c s 51.34 18 16 87 41925 1161820 38827 32% 8  699 249  2%
c v 51.35 18 16 87 41925 1161820 38827 32% 8  694 249  2%
c w 51.36 18 16 87 41925 1161820 38821 32% 8  694 249  2%
c s 51.43 18 16 87 41925 1161820 38749 32% 8  694 249  2%
c ^ 51.43 18 16 87 41925 1161820 38749 32% 8  694 249  2%
c 
c  seconds  reductions         redundant irredundant
c         MB      restarts            trail    variables
c          level        conflicts         glue     remaining
c 
c - 51.93 18 16 88 42422 1174894 43773 33% 8  694 249  2%
c F 51.97 18 16 88 42446 1176092 44588 33% 8  694 249  2%
c s 52.44 18 16 88 43134 1185481 52186 33% 8  694 249  2%
c w 52.48 18 16 88 43134 1185481 52164 33% 8  694 249  2%
c e 52.48 18 16 88 43134 1185481 32913 33% 8  748 231  1%
c s 52.60 18 16 88 43134 1185481 31980 33% 8  748 231  1%
c - 53.22 18 17 89 43918 1201594 39551 33% 8  748 231  1%
c B 54.51 18 17 89 46029 1225094 58146 33% 8  748 231  1%
c - 54.75 18 17 90 46364 1228594 51088 33% 8  748 231  1%
c - 56.69 22 17 91 49401 1255897 58925 32% 8  748 231  1%
c 2 57.21 22 17 91 50033 1265017 65328 32% 8  748 231  1%
c W 57.90 22 17 91 50993 1275095 73165 31% 8  748 231  1%
c - 58.40 26 17 92 51621 1283498 60840 31% 8  748 231  1%
c - 59.74 26 15 93 52923 1311400 60919 29% 8  748 231  1%
c i 59.76 26 15 93 52923 1311922 61096 30% 8  748 230  1%
c s 60.02 26 15 93 52923 1311922 58031 30% 8  748 230  1%
c v 60.02 26 15 93 52923 1311922 58031 30% 8  744 230  1%
c w 60.07 26 15 93 52923 1311922 57898 30% 8  744 230  1%
c s 60.34 26 15 93 52923 1311922 56941 30% 8  740 230  1%
c ^ 60.34 26 15 93 52923 1311922 56941 30% 8  740 230  1%
c 
c  seconds  reductions         redundant irredundant
c         MB      restarts            trail    variables
c          level        conflicts         glue     remaining
c 
c # 61.16 26 15 93 54226 1326096 67814 29% 8  740 230  1%
c - 61.99 26 15 94 55282 1339602 55875 29% 8  740 230  1%
c s 62.31 26 15 94 55668 1345640 60063 28% 8  740 230  1%
c w 62.35 26 15 94 55668 1345640 60029 28% 8  740 230  1%
c e 62.36 26 15 94 55668 1345640 37803 28% 8  828 211  1%
c s 62.45 26 15 94 55668 1345640 36342 28% 8  815 211  1%
c e 62.45 26 15 94 55668 1345640 36336 28% 8  824 208  1%
c - 63.37 16 16 95 57464 1368103 46468 29% 8  824 208  1%
c B 63.87 16 16 95 58435 1378097 54370 29% 8  824 208  1%
c 2 63.98 16 16 95 58633 1380017 55854 29% 8  824 208  1%
c s 64.54 16 16 95 59793 1389335 62760 28% 8  824 208  1%
c v 64.54 16 16 95 59793 1389335 62760 28% 8  815 208  1%
c w 64.58 16 16 95 59793 1389335 62712 28% 8  815 208  1%
c s 64.78 16 16 95 59793 1389335 60689 28% 8  815 208  1%
c - 65.33 20 16 96 60749 1396903 54383 28% 8  815 208  1%
c - 66.76 24 15 97 63176 1426003 57939 27% 8  815 208  1%
c W 66.99 24 15 97 63265 1431098 61066 27% 8  815 208  1%
c i 68.10 24 14 97 64412 1454664 75420 26% 8  815 207  1%
c s 68.10 24 14 97 64412 1454664 75420 26% 8  815 207  1%
c v 68.11 24 14 97 64412 1454664 75420 26% 8  815 207  1%
c 
c  seconds  reductions         redundant irredundant
c         MB      restarts            trail    variables
c          level        conflicts         glue     remaining
c 
c w 68.15 24 14 97 64412 1454664 75330 26% 8  815 207  1%
c t 68.16 24 14 97 64412 1454664 75329 26% 8  815 207  1%
c e 68.16 24 14 97 64412 1454664 74604 26% 8  816 206  1%
c s 68.29 24 14 97 64412 1454664 71998 26% 8  814 206  1%
c - 68.35 15 14 98 64422 1455404 43972 26% 8  814 206  1%
c i 68.66 15 14 98 64703 1463694 49168 25% 8  814 205  1%
c i 68.85 15 13 98 64880 1469571 52645 25% 8  814 203  1%
c i 68.86 15 13 98 64880 1469676 52708 25% 8  814 202  1%
c i 68.86 15 13 98 64880 1469689 52712 25% 8  814 201  1%
c i 68.86 15 13 98 64880 1469691 52713 25% 8  814 184  1%
c } 68.87 15 13 98 64880 1469693 12620  9% 8  688 171  1%
c 0 68.87 15 13 98 64880 1469693 12620  9% 8  688 171  1%
c 
c --- [ result ] -------------------------------------------------------------
c 
s UNSATISFIABLE
c 
c --- [ run-time profiling ] -------------------------------------------------
c 
c process time taken by individual solving procedures
c (percentage relative to process time for solving)
c 
c        65.55   95.19% search
c        40.20   58.37% unstable
c        25.12   36.48% stable
c         3.31    4.81% simplify
c         2.46    3.58% subsume
c         0.60    0.88% vivify
c         0.23    0.34% walk
c         0.07    0.11% probe
c         0.05    0.07% ternary
c         0.04    0.06% elim
c         0.00    0.01% parse
c         0.00    0.00% lucky
c   =================================
c        68.86   99.99% solve
c 
c last line shows process time for solving
c (percentage relative to total process time)
c 
c --- [ statistics ] ---------------------------------------------------------
c 
c chronological:            265725        18.08 %  of conflicts
c conflicts:               1469693     21342.86    per second
c decisions:               2654144     38543.44    per second
c eliminated:                  417         2.56 %  of all variables
c fixed:                        38         0.23 %  of all variables
c learned:                 1429053        97.23 %  per conflict
c learned_lits:           27070933       100.00 %  learned literals
c minimized:                     0         0.00 %  learned literals
c shrunken:                3950938        14.59 %  learned literals
c minishrunken:            1875846         6.93 %  learned literals
c otfs:                      41863         2.85 %  of conflict
c propagations:           34345126         0.50 M  per second
c reduced:                  870665        59.24 %  per conflict
c rephased:                     53     27730.06    interval
c restarts:                  64880        22.65    interval
c stabilizing:                   5        46.28 %  of conflicts
c subsumed:                 371136        25.91 %  of all clauses
c strengthened:              80248         5.60 %  of all clauses
c ternary:                      16         1.26 %  of resolved
c trail reuses:                  0         0.00 %  of incremental calls
c vivified:                    931         0.07 %  of all clauses
c walked:                       17     86452.53    interval
c weakened:                   1648         3.17    average size
c 
c seconds are measured in process time for solving
c 
c --- [ resources ] ----------------------------------------------------------
c 
c total process time since initialization:        68.87    seconds
c total real time since initialization:           68.87    seconds
c maximum resident set size of process:           26.28    MB
c 
c --- [ shutting down ] ------------------------------------------------------
c 
c exit 20
